

******************************************************************************
This program contains Ipopt, a library for large-scale nonlinear optimization.
 Ipopt is released as open source code under the Eclipse Public License (EPL).
         For more information visit http://projects.coin-or.org/Ipopt
******************************************************************************

This is Ipopt version 3.12.8, running with linear solver mumps.
NOTE: Other linear solvers might be more efficient (see Ipopt documentation).

Number of nonzeros in equality constraint Jacobian...:        0
Number of nonzeros in inequality constraint Jacobian.:        2
Number of nonzeros in Lagrangian Hessian.............:        3

Total number of variables............................:        2
                     variables with only lower bounds:        2
                variables with lower and upper bounds:        0
                     variables with only upper bounds:        0
Total number of equality constraints.................:        0
Total number of inequality constraints...............:        1
        inequality constraints with only lower bounds:        1
   inequality constraints with lower and upper bounds:        0
        inequality constraints with only upper bounds:        0

iter    objective    inf_pr   inf_du lg(mu)  ||d||  lg(rg) alpha_du alpha_pr  ls
   0  2.2500000e+00 0.00e+00 3.00e+00  -1.0 0.00e+00    -  0.00e+00 0.00e+00   0
   1  5.8800000e-01 0.00e+00 1.05e+00  -1.0 6.20e-01    -  4.85e-01 1.00e+00f  1
   2  2.8208079e-01 0.00e+00 1.00e-06  -1.0 4.02e-01    -  1.00e+00 1.00e+00f  1
   3  2.6674053e-01 0.00e+00 2.65e-02  -2.5 8.83e-02    -  9.43e-01 1.00e+00f  1
   4  2.5462443e-01 0.00e+00 2.83e-08  -2.5 1.37e-01    -  1.00e+00 1.00e+00f  1
   5  2.5129312e-01 0.00e+00 1.91e-03  -3.8 7.16e-02    -  9.43e-01 1.00e+00f  1
   6  2.5037381e-01 0.00e+00 1.50e-09  -3.8 3.72e-02    -  1.00e+00 1.00e+00f  1
   7  2.5009492e-01 0.00e+00 1.33e-04  -5.7 2.14e-02    -  9.85e-01 1.00e+00f  1
   8  2.5002453e-01 0.00e+00 1.84e-11  -5.7 1.07e-02    -  1.00e+00 1.00e+00f  1
   9  2.5000660e-01 0.00e+00 1.84e-11  -5.7 5.33e-03    -  1.00e+00 1.00e+00f  1
iter    objective    inf_pr   inf_du lg(mu)  ||d||  lg(rg) alpha_du alpha_pr  ls
  10  2.5000165e-01 0.00e+00 2.42e-06  -8.6 2.87e-03    -  9.98e-01 1.00e+00f  1
  11  2.5000041e-01 0.00e+00 2.51e-14  -8.6 1.43e-03    -  1.00e+00 1.00e+00f  1
  12  2.5000010e-01 0.00e+00 2.51e-14  -8.6 7.18e-04    -  1.00e+00 1.00e+00f  1
  13  2.5000003e-01 0.00e+00 2.52e-14  -8.6 3.57e-04    -  1.00e+00 1.00e+00f  1
  14  2.5000001e-01 0.00e+00 2.55e-14  -8.6 1.74e-04    -  1.00e+00 1.00e+00f  1
  15  2.5000000e-01 0.00e+00 9.29e-15  -9.0 8.97e-05    -  1.00e+00 1.00e+00f  1

Number of Iterations....: 15

                                   (scaled)                 (unscaled)
Objective...............:   2.5000000206257211e-01    2.5000000206257211e-01
Dual infeasibility......:   9.2867162489166039e-15    9.2867162489166039e-15
Constraint violation....:   0.0000000000000000e+00    0.0000000000000000e+00
Complementarity.........:   4.1262561084427188e-09    4.1262561084427188e-09
Overall NLP error.......:   4.1262561084427188e-09    4.1262561084427188e-09


Number of objective function evaluations             = 16
Number of objective gradient evaluations             = 16
Number of equality constraint evaluations            = 0
Number of inequality constraint evaluations          = 16
Number of equality constraint Jacobian evaluations   = 0
Number of inequality constraint Jacobian evaluations = 16
Number of Lagrangian Hessian evaluations             = 15
Total CPU secs in IPOPT (w/o function evaluations)   =      0.004
Total CPU secs in NLP function evaluations           =      0.000

EXIT: Optimal Solution Found.
 
Ipopt 3.12.8: Optimal Solution Found
